50
9066

294 941
931 492
461 366
788 886
531 581
294 692
560 168
722 628
456 102
431 222
180 32
939 878
500 633
993 188
35 239
328 555
954 484
458 384
860 463
150 802
907 645
693 416
265 821
673 636
124 664
151 555
204 72
46 316
379 981
770 436
808 552
730 119
2 595
205 295
710 812
149 713
650 837
408 704
234 660
669 132
316 72
314 78
760 3
694 653
438 643
358 940
458 977
452 665
895 904
606 864
